; benchmark generated from python API
(set-info :status unknown)
(declare-fun x_epoch () Int)
(declare-fun x_shift_period_480557_epoch () Int)
(declare-fun x_year () Int)
(declare-fun x_month () Int)
(declare-fun x_day () Int)
(declare-fun x_shift_period_480557_year () Int)
(declare-fun x_shift_period_480557_month () Int)
(declare-fun x_shift_period_480557_day () Int)
(declare-fun x_shift_period_487825_epoch () Int)
(declare-fun x_shift_period_487825_year () Int)
(declare-fun x_shift_period_487825_month () Int)
(declare-fun x_shift_period_487825_day () Int)
(assert
 (>= x_epoch (- 36584)))
(assert
 (<= x_epoch 36829))
(assert
 (>= x_epoch 7214))
(assert
 (<= x_epoch 7304))
(assert
 (>= x_shift_period_480557_epoch (- 36584)))
(assert
 (<= x_shift_period_480557_epoch 36829))
(assert
 (let (($x2293 (<= x_year 2100)))
 (let (($x1504 (>= x_year 1900)))
 (let (($x684 (= x_month 11)))
 (let (($x1263 (= x_month 9)))
 (let (($x791 (= x_month 6)))
 (let (($x721 (= x_month 4)))
 (let ((?x2607 (ite (or $x721 $x791 $x1263 $x684) 30 31)))
 (let (($x257 (= (mod x_year 4) 0)))
 (let (($x1207 (= (mod x_year 100) 0)))
 (let (($x2715 (= (mod x_year 400) 0)))
 (let (($x656 (ite $x2715 true (ite $x1207 false $x257))))
 (let (($x2319 (= x_month 2)))
 (let ((?x235 (ite $x2319 (ite $x656 29 28) ?x2607)))
 (let (($x2786 (>= x_day 1)))
 (let (($x111 (<= x_month 12)))
 (let (($x2376 (>= x_month 1)))
 (and $x2376 $x111 $x2786 (<= x_day ?x235) $x1504 $x2293))))))))))))))))))
(assert
 (let (($x29 (or (and (= (mod 2000 4) 0) (and (distinct (mod 2000 100) 0) true)) (= (mod 2000 400) 0))))
 (let ((?x36 (ite (= 3 2) (ite $x29 31 31) (ite (= 3 1) (ite $x29 0 0) 0))))
 (let ((?x40 (ite $x29 60 59)))
 (let ((?x41 (ite (= 3 3) ?x40 ?x36)))
 (let ((?x46 (ite (= 3 4) (ite $x29 91 90) ?x41)))
 (let ((?x52 (ite (= 3 5) (ite $x29 121 120) ?x46)))
 (let ((?x58 (ite (= 3 6) (ite $x29 152 151) ?x52)))
 (let ((?x64 (ite (= 3 7) (ite $x29 182 181) ?x58)))
 (let ((?x70 (ite (= 3 8) (ite $x29 213 212) ?x64)))
 (let ((?x76 (ite (= 3 9) (ite $x29 244 243) ?x70)))
 (let ((?x82 (ite (= 3 10) (ite $x29 274 273) ?x76)))
 (let ((?x88 (ite (= 3 11) (ite $x29 305 304) ?x82)))
 (let ((?x16 (- (+ (* 365 (- 2000 1)) (div (- 2000 1) 4)) (div (- 2000 1) 100))))
 (let ((?x95 (+ (+ ?x16 (div (- 2000 1) 400)) (ite (= 3 12) (ite $x29 335 334) ?x88))))
 (let ((?x97 (+ ?x95 (- 1 1))))
 (let (($x257 (= (mod x_year 4) 0)))
 (let (($x1207 (= (mod x_year 100) 0)))
 (let (($x2715 (= (mod x_year 400) 0)))
 (let (($x656 (ite $x2715 true (ite $x1207 false $x257))))
 (let (($x2043 (= 2 x_month)))
 (let ((?x2800 (ite $x2043 (ite $x656 31 31) (ite (= 1 x_month) (ite $x656 0 0) 0))))
 (let (($x914 (= 3 x_month)))
 (let (($x1891 (= 4 x_month)))
 (let ((?x189 (ite $x1891 (ite $x656 91 90) (ite $x914 (ite $x656 60 59) ?x2800))))
 (let (($x2398 (= 5 x_month)))
 (let (($x3221 (= 6 x_month)))
 (let ((?x2274 (ite $x3221 (ite $x656 152 151) (ite $x2398 (ite $x656 121 120) ?x189))))
 (let (($x1117 (= 7 x_month)))
 (let (($x1752 (= 8 x_month)))
 (let ((?x2826 (ite $x1752 (ite $x656 213 212) (ite $x1117 (ite $x656 182 181) ?x2274))))
 (let (($x1153 (= 9 x_month)))
 (let (($x303 (= 10 x_month)))
 (let ((?x2978 (ite $x303 (ite $x656 274 273) (ite $x1153 (ite $x656 244 243) ?x2826))))
 (let (($x2818 (= 11 x_month)))
 (let (($x140 (= 12 x_month)))
 (let ((?x620 (ite $x140 (ite $x656 335 334) (ite $x2818 (ite $x656 305 304) ?x2978))))
 (let ((?x778 (- (+ (* 365 (- x_year 1)) (div (- x_year 1) 4)) (div (- x_year 1) 100))))
 (let ((?x858 (+ (+ (+ ?x778 (div (- x_year 1) 400)) ?x620) (- x_day 1))))
 (= x_epoch (- ?x858 ?x97)))))))))))))))))))))))))))))))))))))))))
(assert
 (let (($x1049 (<= x_shift_period_480557_year 2100)))
 (let (($x2148 (>= x_shift_period_480557_year 1900)))
 (let (($x3195 (= x_shift_period_480557_month 11)))
 (let (($x2613 (= x_shift_period_480557_month 9)))
 (let (($x1756 (= x_shift_period_480557_month 6)))
 (let (($x2949 (= x_shift_period_480557_month 4)))
 (let ((?x538 (ite (or $x2949 $x1756 $x2613 $x3195) 30 31)))
 (let (($x3057 (= (mod x_shift_period_480557_year 4) 0)))
 (let (($x910 (= (mod x_shift_period_480557_year 100) 0)))
 (let (($x3161 (= (mod x_shift_period_480557_year 400) 0)))
 (let (($x724 (ite $x3161 true (ite $x910 false $x3057))))
 (let (($x2223 (= x_shift_period_480557_month 2)))
 (let (($x3036 (>= x_shift_period_480557_day 1)))
 (let (($x2224 (<= x_shift_period_480557_month 12)))
 (let (($x2497 (>= x_shift_period_480557_month 1)))
 (and $x2497 $x2224 $x3036 (<= x_shift_period_480557_day (ite $x2223 (ite $x724 29 28) ?x538)) $x2148 $x1049)))))))))))))))))
(assert
 (let (($x29 (or (and (= (mod 2000 4) 0) (and (distinct (mod 2000 100) 0) true)) (= (mod 2000 400) 0))))
 (let ((?x36 (ite (= 3 2) (ite $x29 31 31) (ite (= 3 1) (ite $x29 0 0) 0))))
 (let ((?x40 (ite $x29 60 59)))
 (let ((?x41 (ite (= 3 3) ?x40 ?x36)))
 (let ((?x46 (ite (= 3 4) (ite $x29 91 90) ?x41)))
 (let ((?x52 (ite (= 3 5) (ite $x29 121 120) ?x46)))
 (let ((?x58 (ite (= 3 6) (ite $x29 152 151) ?x52)))
 (let ((?x64 (ite (= 3 7) (ite $x29 182 181) ?x58)))
 (let ((?x70 (ite (= 3 8) (ite $x29 213 212) ?x64)))
 (let ((?x76 (ite (= 3 9) (ite $x29 244 243) ?x70)))
 (let ((?x82 (ite (= 3 10) (ite $x29 274 273) ?x76)))
 (let ((?x88 (ite (= 3 11) (ite $x29 305 304) ?x82)))
 (let ((?x16 (- (+ (* 365 (- 2000 1)) (div (- 2000 1) 4)) (div (- 2000 1) 100))))
 (let ((?x95 (+ (+ ?x16 (div (- 2000 1) 400)) (ite (= 3 12) (ite $x29 335 334) ?x88))))
 (let ((?x97 (+ ?x95 (- 1 1))))
 (let (($x3057 (= (mod x_shift_period_480557_year 4) 0)))
 (let (($x910 (= (mod x_shift_period_480557_year 100) 0)))
 (let (($x3161 (= (mod x_shift_period_480557_year 400) 0)))
 (let (($x724 (ite $x3161 true (ite $x910 false $x3057))))
 (let ((?x591 (ite (= 1 x_shift_period_480557_month) (ite $x724 0 0) 0)))
 (let ((?x2654 (ite (= 3 x_shift_period_480557_month) (ite $x724 60 59) (ite (= 2 x_shift_period_480557_month) (ite $x724 31 31) ?x591))))
 (let ((?x371 (ite (= 5 x_shift_period_480557_month) (ite $x724 121 120) (ite (= 4 x_shift_period_480557_month) (ite $x724 91 90) ?x2654))))
 (let ((?x1206 (ite (= 7 x_shift_period_480557_month) (ite $x724 182 181) (ite (= 6 x_shift_period_480557_month) (ite $x724 152 151) ?x371))))
 (let ((?x2708 (ite (= 9 x_shift_period_480557_month) (ite $x724 244 243) (ite (= 8 x_shift_period_480557_month) (ite $x724 213 212) ?x1206))))
 (let ((?x1899 (ite (= 11 x_shift_period_480557_month) (ite $x724 305 304) (ite (= 10 x_shift_period_480557_month) (ite $x724 274 273) ?x2708))))
 (let ((?x2912 (+ (* 365 (- x_shift_period_480557_year 1)) (div (- x_shift_period_480557_year 1) 4))))
 (let ((?x738 (+ (- ?x2912 (div (- x_shift_period_480557_year 1) 100)) (div (- x_shift_period_480557_year 1) 400))))
 (let ((?x3128 (+ ?x738 (ite (= 12 x_shift_period_480557_month) (ite $x724 335 334) ?x1899))))
 (= x_shift_period_480557_epoch (- (+ ?x3128 (- x_shift_period_480557_day 1)) ?x97)))))))))))))))))))))))))))))))
(assert
 (let ((?x2339 (* 12 x_year)))
 (let ((?x222 (+ ?x2339 (- x_month 1))))
 (let ((?x168 (+ ?x222 12)))
 (let ((?x2377 (div ?x168 12)))
 (= x_shift_period_480557_year ?x2377))))))
(assert
 (let ((?x3129 (+ (mod (+ (+ (* 12 x_year) (- x_month 1)) 12) 12) 1)))
 (= x_shift_period_480557_month ?x3129)))
(assert
 (let ((?x3129 (+ (mod (+ (+ (* 12 x_year) (- x_month 1)) 12) 12) 1)))
 (let ((?x528 (ite (or (= ?x3129 4) (= ?x3129 6) (= ?x3129 9) (= ?x3129 11)) 30 31)))
 (let ((?x2339 (* 12 x_year)))
 (let ((?x222 (+ ?x2339 (- x_month 1))))
 (let ((?x168 (+ ?x222 12)))
 (let ((?x2377 (div ?x168 12)))
 (let (($x1984 (ite (= (mod ?x2377 400) 0) true (ite (= (mod ?x2377 100) 0) false (= (mod ?x2377 4) 0)))))
 (let ((?x1344 (ite (= ?x3129 2) (ite $x1984 29 28) ?x528)))
 (let ((?x3172 (ite (<= x_day ?x1344) x_day ?x1344)))
 (let (($x684 (= x_month 11)))
 (let (($x1263 (= x_month 9)))
 (let (($x791 (= x_month 6)))
 (let (($x721 (= x_month 4)))
 (let ((?x2607 (ite (or $x721 $x791 $x1263 $x684) 30 31)))
 (let (($x257 (= (mod x_year 4) 0)))
 (let (($x1207 (= (mod x_year 100) 0)))
 (let (($x2715 (= (mod x_year 400) 0)))
 (let (($x656 (ite $x2715 true (ite $x1207 false $x257))))
 (let (($x2319 (= x_month 2)))
 (let ((?x235 (ite $x2319 (ite $x656 29 28) ?x2607)))
 (let (($x2597 (= x_day ?x235)))
 (= x_shift_period_480557_day (ite false (ite $x2597 ?x1344 ?x3172) ?x3172))))))))))))))))))))))))
(assert
 (>= x_shift_period_487825_epoch (- 36584)))
(assert
 (<= x_shift_period_487825_epoch 36829))
(assert
 (let (($x1055 (<= x_shift_period_487825_year 2100)))
 (let (($x157 (>= x_shift_period_487825_year 1900)))
 (let (($x866 (= x_shift_period_487825_month 11)))
 (let (($x2869 (= x_shift_period_487825_month 9)))
 (let (($x922 (= x_shift_period_487825_month 6)))
 (let (($x511 (= x_shift_period_487825_month 4)))
 (let ((?x1643 (ite (or $x511 $x922 $x2869 $x866) 30 31)))
 (let (($x1304 (= (mod x_shift_period_487825_year 4) 0)))
 (let (($x2132 (= (mod x_shift_period_487825_year 100) 0)))
 (let (($x1167 (= (mod x_shift_period_487825_year 400) 0)))
 (let (($x1730 (ite $x1167 true (ite $x2132 false $x1304))))
 (let (($x1600 (= x_shift_period_487825_month 2)))
 (let (($x1008 (>= x_shift_period_487825_day 1)))
 (let (($x2779 (<= x_shift_period_487825_month 12)))
 (let (($x2288 (>= x_shift_period_487825_month 1)))
 (and $x2288 $x2779 $x1008 (<= x_shift_period_487825_day (ite $x1600 (ite $x1730 29 28) ?x1643)) $x157 $x1055)))))))))))))))))
(assert
 (let (($x29 (or (and (= (mod 2000 4) 0) (and (distinct (mod 2000 100) 0) true)) (= (mod 2000 400) 0))))
 (let ((?x36 (ite (= 3 2) (ite $x29 31 31) (ite (= 3 1) (ite $x29 0 0) 0))))
 (let ((?x40 (ite $x29 60 59)))
 (let ((?x41 (ite (= 3 3) ?x40 ?x36)))
 (let ((?x46 (ite (= 3 4) (ite $x29 91 90) ?x41)))
 (let ((?x52 (ite (= 3 5) (ite $x29 121 120) ?x46)))
 (let ((?x58 (ite (= 3 6) (ite $x29 152 151) ?x52)))
 (let ((?x64 (ite (= 3 7) (ite $x29 182 181) ?x58)))
 (let ((?x70 (ite (= 3 8) (ite $x29 213 212) ?x64)))
 (let ((?x76 (ite (= 3 9) (ite $x29 244 243) ?x70)))
 (let ((?x82 (ite (= 3 10) (ite $x29 274 273) ?x76)))
 (let ((?x88 (ite (= 3 11) (ite $x29 305 304) ?x82)))
 (let ((?x16 (- (+ (* 365 (- 2000 1)) (div (- 2000 1) 4)) (div (- 2000 1) 100))))
 (let ((?x95 (+ (+ ?x16 (div (- 2000 1) 400)) (ite (= 3 12) (ite $x29 335 334) ?x88))))
 (let ((?x97 (+ ?x95 (- 1 1))))
 (let (($x1304 (= (mod x_shift_period_487825_year 4) 0)))
 (let (($x2132 (= (mod x_shift_period_487825_year 100) 0)))
 (let (($x1167 (= (mod x_shift_period_487825_year 400) 0)))
 (let (($x1730 (ite $x1167 true (ite $x2132 false $x1304))))
 (let ((?x1254 (ite (= 1 x_shift_period_487825_month) (ite $x1730 0 0) 0)))
 (let ((?x2640 (ite (= 3 x_shift_period_487825_month) (ite $x1730 60 59) (ite (= 2 x_shift_period_487825_month) (ite $x1730 31 31) ?x1254))))
 (let ((?x2880 (ite (= 5 x_shift_period_487825_month) (ite $x1730 121 120) (ite (= 4 x_shift_period_487825_month) (ite $x1730 91 90) ?x2640))))
 (let ((?x2209 (ite (= 7 x_shift_period_487825_month) (ite $x1730 182 181) (ite (= 6 x_shift_period_487825_month) (ite $x1730 152 151) ?x2880))))
 (let ((?x1291 (ite (= 9 x_shift_period_487825_month) (ite $x1730 244 243) (ite (= 8 x_shift_period_487825_month) (ite $x1730 213 212) ?x2209))))
 (let ((?x996 (ite (= 11 x_shift_period_487825_month) (ite $x1730 305 304) (ite (= 10 x_shift_period_487825_month) (ite $x1730 274 273) ?x1291))))
 (let ((?x3178 (+ (* 365 (- x_shift_period_487825_year 1)) (div (- x_shift_period_487825_year 1) 4))))
 (let ((?x1827 (+ (- ?x3178 (div (- x_shift_period_487825_year 1) 100)) (div (- x_shift_period_487825_year 1) 400))))
 (let ((?x2618 (+ ?x1827 (ite (= 12 x_shift_period_487825_month) (ite $x1730 335 334) ?x996))))
 (= x_shift_period_487825_epoch (- (+ ?x2618 (- x_shift_period_487825_day 1)) ?x97)))))))))))))))))))))))))))))))
(assert
 (= x_shift_period_487825_epoch (+ x_epoch 366)))
(assert
 (not (= x_shift_period_480557_epoch x_shift_period_487825_epoch)))
(check-sat)
